c FILE /home/rafael/Documents/HappySet/MIHS/inputs/happygen/output/graph_scale_free_k4_p0.5_v50_20241127_082435.txt
c SOURCE This is a scale-free graph formed for the happy graph colouring problem.
c DESCRIPTION It was generated using the problem generator of Rhyd Lewis
c
c GRAPH STATS
c Seed                             = -1598379327
c Number of Nodes                  = 50
c Number of colours k              = 4
c Number of pre-assignments        = 25
c Number of links per new node     = 5
c Density                          = 0.191837
c 
c The degrees of nodes 1 to 50, respectively, are as follows 
c [21, 21, 17, 17, 17, 17, 16, 16, 15, 15, 14, 13, 12, 12, 12, 11, 10, 10, 9, 9, 9, 8, 8, 8, 8, 8, 
c  8, 8, 7, 7, 7, 7, 6, 6, 6, 5, 5, 5, 5, 5, 5, 5, 5, 5, 5, 5, 5, 5, 5, 5] 
c  
p edge 50 235 4
e 1 2
e 1 3
e 1 4
e 1 5
e 1 7
e 1 8
e 1 9
e 1 10
e 1 12
e 1 13
e 1 16
e 1 23
e 1 24
e 1 25
e 1 28
e 1 36
e 1 38
e 1 40
e 1 43
e 1 44
e 1 45
e 2 3
e 2 4
e 2 6
e 2 7
e 2 8
e 2 10
e 2 11
e 2 12
e 2 15
e 2 16
e 2 19
e 2 20
e 2 23
e 2 24
e 2 33
e 2 37
e 2 38
e 2 39
e 2 42
e 2 46
e 3 4
e 3 5
e 3 7
e 3 9
e 3 10
e 3 12
e 3 13
e 3 17
e 3 21
e 3 22
e 3 35
e 3 36
e 3 37
e 3 43
e 3 47
e 4 5
e 4 6
e 4 7
e 4 8
e 4 9
e 4 10
e 4 11
e 4 14
e 4 15
e 4 18
e 4 19
e 4 21
e 4 31
e 4 45
e 5 6
e 5 8
e 5 9
e 5 10
e 5 12
e 5 13
e 5 18
e 5 21
e 5 27
e 5 28
e 5 32
e 5 33
e 5 41
e 5 43
e 6 9
e 6 10
e 6 14
e 6 21
e 6 22
e 6 23
e 6 24
e 6 26
e 6 28
e 6 29
e 6 34
e 6 39
e 6 40
e 6 41
e 7 9
e 7 10
e 7 11
e 7 14
e 7 17
e 7 20
e 7 27
e 7 31
e 7 32
e 7 36
e 7 40
e 7 44
e 8 9
e 8 13
e 8 15
e 8 16
e 8 17
e 8 18
e 8 22
e 8 25
e 8 30
e 8 31
e 8 33
e 8 40
e 9 10
e 9 11
e 9 14
e 9 24
e 9 28
e 9 36
e 9 45
e 9 50
e 10 11
e 10 13
e 10 19
e 10 22
e 10 29
e 10 32
e 10 46
e 11 12
e 11 20
e 11 23
e 11 24
e 11 25
e 11 30
e 11 47
e 11 48
e 11 50
e 12 15
e 12 17
e 12 26
e 12 31
e 12 33
e 12 42
e 12 43
e 12 48
e 13 14
e 13 18
e 13 22
e 13 23
e 13 37
e 13 38
e 13 49
e 14 15
e 14 16
e 14 20
e 14 29
e 14 34
e 14 36
e 14 42
e 15 16
e 15 18
e 15 26
e 15 29
e 15 34
e 15 46
e 15 48
e 16 25
e 16 26
e 16 33
e 16 37
e 16 39
e 16 49
e 17 21
e 17 24
e 17 31
e 17 38
e 17 44
e 17 46
e 18 20
e 18 30
e 18 35
e 18 40
e 18 43
e 19 25
e 19 26
e 19 30
e 19 34
e 19 44
e 19 50
e 20 27
e 20 39
e 20 47
e 20 50
e 21 27
e 21 35
e 21 41
e 21 42
e 22 38
e 22 39
e 22 47
e 23 29
e 23 45
e 23 47
e 24 26
e 24 32
e 25 29
e 25 30
e 25 37
e 26 27
e 26 42
e 27 35
e 27 48
e 27 49
e 28 30
e 28 35
e 28 44
e 28 49
e 29 32
e 30 34
e 31 41
e 31 45
e 32 41
e 32 48
e 33 49
e 34 46
e 35 50
n 2 3
n 3 3
n 9 3
n 10 3
n 14 3
n 16 3
n 18 2
n 21 3
n 23 3
n 25 3
n 29 3
n 31 2
n 33 3
n 36 3
n 37 3
n 38 3
n 39 3
n 40 2
n 42 3
n 44 1
n 46 3
n 47 3
n 48 4
n 49 3
n 50 3
